p cnf 16 110
1 3 5 7 9 11 13 15 0
2 4 6 8 10 12 14 16 0
-1 -4 0
-2 -3 0
-1 -6 0
-2 -5 0
-1 -8 0
-2 -7 0
-1 -10 0
-2 -9 0
-1 -14 0
-2 -13 0
-1 -16 0
-2 -15 0
-3 -6 0
-4 -5 0
-3 -10 0
-4 -9 0
-3 -12 0
-4 -11 0
-3 -14 0
-4 -13 0
-5 -8 0
-6 -7 0
-5 -10 0
-6 -9 0
-5 -12 0
-6 -11 0
-5 -16 0
-6 -15 0
-7 -10 0
-8 -9 0
-7 -14 0
-8 -13 0
-7 -16 0
-8 -15 0
-9 -12 0
-10 -11 0
-9 -14 0
-10 -13 0
-9 -16 0
-10 -15 0
-11 -14 0
-12 -13 0
-13 -16 0
-14 -15 0
-17 -4 0
-18 -3 0
-17 -6 0
-18 -5 0
-17 -8 0
-18 -7 0
-17 -10 0
-18 -9 0
-17 -12 0
-18 -11 0
-17 -14 0
-18 -13 0
-17 -16 0
-18 -15 0
-19 -6 0
-20 -5 0
-19 -8 0
-20 -7 0
-19 -10 0
-20 -9 0
-19 -12 0
-20 -11 0
-19 -14 0
-20 -13 0
-19 -16 0
-20 -15 0
-21 -8 0
-22 -7 0
-21 -10 0
-22 -9 0
-21 -12 0
-22 -11 0
-21 -14 0
-22 -13 0
-21 -16 0
-22 -15 0
-23 -10 0
-24 -9 0
-23 -12 0
-24 -11 0
-23 -14 0
-24 -13 0
-23 -16 0
-24 -15 0
-25 -12 0
-26 -11 0
-25 -14 0
-26 -13 0
-25 -16 0
-26 -15 0
-27 -14 0
-28 -13 0
-27 -16 0
-28 -15 0
-29 -16 0
-30 -15 0
-1 -3 0
-1 -5 0
-1 -7 0
-1 -9 0
-1 -11 0
-1 -13 0
-1 -15 0
-2 -4 0
-2 -6 0
-2 -8 0
-2 -10 0
-2 -12 0
-2 -14 0
-2 -16 0
-3 -5 0
-3 -7 0
-3 -9 0
-3 -11 0
-3 -13 0
-3 -15 0
-4 -6 0
-4 -8 0
-4 -10 0
-4 -12 0
-4 -14 0
-4 -16 0
-5 -7 0
-5 -9 0
-5 -11 0
-5 -13 0
-5 -15 0
-6 -8 0
-6 -10 0
-6 -12 0
-6 -14 0
-6 -16 0
-7 -9 0
-7 -11 0
-7 -13 0
-7 -15 0
-8 -10 0
-8 -12 0
-8 -14 0
-8 -16 0
-9 -11 0
-9 -13 0
-9 -15 0
-10 -12 0
-10 -14 0
-10 -16 0
-11 -13 0
-11 -15 0
-12 -14 0
-12 -16 0
-13 -15 0
-14 -16 0
-1 -2 0
-3 -4 0
-5 -6 0
-7 -8 0
-9 -10 0
-11 -12 0
-13 -14 0
-15 -16 0
